
Gurobi 11.0.0 (linux64) logging started Tue Sep 17 01:51:15 2024

Set parameter LogFile to value "gurobi.log"
Set parameter InfUnbdInfo to value 1
Gurobi Optimizer version 11.0.0 build v11.0.0rc2 (linux64 - "Ubuntu 22.04.4 LTS")

CPU model: AMD EPYC 7V13 64-Core Processor, instruction set [SSE2|AVX|AVX2]
Thread count: 128 physical cores, 128 logical processors, using up to 32 threads

Optimize a model with 30 rows, 345 columns and 101 nonzeros
Model fingerprint: 0x07062f70
Model has 338 quadratic constraints
Model has 2 general constraints
Variable types: 93 continuous, 252 integer (0 binary)
Coefficient statistics:
  Matrix range     [1e+00, 3e+05]
  QMatrix range    [1e+00, 3e+05]
  QLMatrix range   [1e+00, 3e+05]
  Objective range  [1e+00, 1e+00]
  Bounds range     [1e+00, 9e+12]
  RHS range        [1e+00, 1e+00]
  QRHS range       [1e+00, 2e+06]
Warning: Model contains large bounds
         Consider reformulating model or setting NumericFocus parameter
         to avoid numerical issues.
Using branch priorities (all 0).
Presolve added 78 rows and 26 columns
Presolve time: 0.01s
Presolved: 1220 rows, 576 columns, 3246 nonzeros
Presolved model has 62 SOS constraint(s)
Presolved model has 198 bilinear constraint(s)
Warning: Model contains variables with very large bounds participating
         in product terms.
         Presolve was not able to compute smaller bounds for these variables.
         Consider bounding these variables or reformulating the model.


Solving non-convex MIQCP

Variable types: 167 continuous, 409 integer (180 binary)

Root relaxation: objective 3.841592e+04, 238 iterations, 0.00 seconds (0.00 work units)

    Nodes    |    Current Node    |     Objective Bounds      |     Work
 Expl Unexpl |  Obj  Depth IntInf | Incumbent    BestBd   Gap | It/Node Time

     0     0 38415.9165    0  171          - 38415.9165      -     -    0s
     0     0 38415.9181    0  168          - 38415.9181      -     -    0s
H    0     0                    7.853583e+08 38415.9181   100%     -    0s
     0     0 38423.8268    0  155 7.8536e+08 38423.8268   100%     -    0s
     0     0 38423.8268    0  158 7.8536e+08 38423.8268   100%     -    0s
     0     0 38425.6943    0  172 7.8536e+08 38425.6943   100%     -    0s
     0     0 38520.7857    0  179 7.8536e+08 38520.7857   100%     -    0s
     0     0 38520.7857    0  179 7.8536e+08 38520.7857   100%     -    0s
H    0     0                    7.691621e+08 38520.7857   100%     -    0s
H    0     0                    1.010319e+08 38520.7858   100%     -    0s
     0     0 38520.7858    0  179 1.0103e+08 38520.7858   100%     -    0s
     0     0 38674.8047    0  165 1.0103e+08 38674.8047   100%     -    0s
     0     0 38674.8047    0  164 1.0103e+08 38674.8047   100%     -    0s
H    0     0                    5.596858e+07 38722.2768   100%     -    0s
H    0     0                    428400.00000 38724.4517  91.0%     -    0s
     0     0 38724.4517    0  205 428400.000 38724.4517  91.0%     -    0s
     0     0 38745.8262    0  126 428400.000 38745.8262  91.0%     -    0s
     0     0 38791.4154    0  125 428400.000 38791.4154  90.9%     -    0s
     0     0 38838.1987    0   99 428400.000 38838.1987  90.9%     -    0s
     0     0 38841.8355    0   99 428400.000 38841.8355  90.9%     -    0s
     0     0 38844.0026    0  177 428400.000 38844.0026  90.9%     -    0s
H    0     0                    425900.00000 38844.0491  90.9%     -    0s
     0     0 38845.8761    0  184 425900.000 38845.8761  90.9%     -    0s
     0     0 38846.2640    0  198 425900.000 38846.2640  90.9%     -    0s
H    0     0                    377400.00000 38846.2640  89.7%     -    0s
     0     0 38846.4220    0  197 377400.000 38846.4220  89.7%     -    0s
     0     0 38847.7697    0  176 377400.000 38847.7697  89.7%     -    0s
     0     0 38847.7934    0  212 377400.000 38847.7934  89.7%     -    0s
     0     0 38848.3768    0  184 377400.000 38848.3768  89.7%     -    0s
     0     0 38848.4336    0  184 377400.000 38848.4336  89.7%     -    0s
     0     0 38849.0670    0  183 377400.000 38849.0670  89.7%     -    0s
     0     0 38849.1570    0  183 377400.000 38849.1570  89.7%     -    0s
H    0     0                    142000.00000 38849.1570  72.6%     -    0s
H    0     0                    120900.00000 38849.1570  67.9%     -    0s
     0     0 38849.1570    0   68 120900.000 38849.1570  67.9%     -    0s
H    0     0                    100900.00000 38849.1570  61.5%     -    0s
     0     0 38849.1570    0  127 100900.000 38849.1570  61.5%     -    0s
     0     0 38849.1570    0  144 100900.000 38849.1570  61.5%     -    0s
     0     0 41540.7410    0  147 100900.000 41540.7410  58.8%     -    0s
     0     0 41611.4324    0  158 100900.000 41611.4324  58.8%     -    0s
     0     0 57626.4322    0  106 100900.000 57626.4322  42.9%     -    0s
H    0     0                    89700.000000 57626.5004  35.8%     -    0s
     0     0 57635.6346    0  112 89700.0000 57635.6346  35.7%     -    0s
     0     0 57638.7929    0  112 89700.0000 57638.7929  35.7%     -    0s
H    0     0                    89400.000000 57647.2191  35.5%     -    0s
     0     0 57647.2191    0   88 89400.0000 57647.2191  35.5%     -    0s
     0     0 57648.9235    0   88 89400.0000 57648.9235  35.5%     -    0s
     0     0 57648.9235    0  106 89400.0000 57648.9235  35.5%     -    0s
     0     0 57648.9235    0   41 89400.0000 57648.9235  35.5%     -    0s
     0     0 57648.9235    0   82 89400.0000 57648.9235  35.5%     -    0s
     0     0 57648.9235    0   95 89400.0000 57648.9235  35.5%     -    0s
     0     0 57648.9235    0  102 89400.0000 57648.9235  35.5%     -    0s
     0     0 57649.1407    0   99 89400.0000 57649.1407  35.5%     -    0s
     0     0 57721.7302    0   89 89400.0000 57721.7302  35.4%     -    0s
     0     0 57828.4776    0   79 89400.0000 57828.4776  35.3%     -    0s
     0     0 57828.5582    0   79 89400.0000 57828.5582  35.3%     -    0s
     0     0 57867.0970    0   70 89400.0000 57867.0970  35.3%     -    0s
     0     0 57910.4384    0  101 89400.0000 57910.4384  35.2%     -    0s
     0     0 57910.4384    0   99 89400.0000 57910.4384  35.2%     -    0s
     0     0 57949.4079    0   99 89400.0000 57949.4079  35.2%     -    1s
     0     0 57949.4079    0   99 89400.0000 57949.4079  35.2%     -    1s
     0     0 57968.7337    0  106 89400.0000 57968.7337  35.2%     -    1s
     0     0 58011.7340    0  108 89400.0000 58011.7340  35.1%     -    1s
     0     0 58080.2734    0  109 89400.0000 58080.2734  35.0%     -    1s
     0     0 58179.4987    0  109 89400.0000 58179.4987  34.9%     -    1s
     0     0 58300.9056    0  109 89400.0000 58300.9056  34.8%     -    1s
     0     0 58448.8117    0  108 89400.0000 58448.8117  34.6%     -    1s
     0     0 58544.3644    0  106 89400.0000 58544.3644  34.5%     -    1s
     0     0 58603.7365    0  101 89400.0000 58603.7365  34.4%     -    1s
H    0     0                    83759.966500 58972.8563  29.6%     -    1s
     0     0 58972.8563    0   89 83759.9665 58972.8563  29.6%     -    1s
     0     0 59076.9254    0   97 83759.9665 59076.9254  29.5%     -    1s
     0     0 59201.8508    0  108 83759.9665 59201.8508  29.3%     -    1s
     0     0 59263.6391    0  108 83759.9665 59263.6391  29.2%     -    1s
     0     0 59343.0738    0  109 83759.9665 59343.0738  29.2%     -    1s
     0     0 59461.2822    0  109 83759.9665 59461.2822  29.0%     -    1s
     0     0 59767.3630    0  109 83759.9665 59767.3630  28.6%     -    1s
H    0     0                    83159.983250 59767.3630  28.1%     -    1s
     0     0 59767.3630    0   83 83159.9832 59767.3630  28.1%     -    1s
     0     0 59767.3630    0   93 83159.9832 59767.3630  28.1%     -    2s
     0     0 59767.3630    0   94 83159.9832 59767.3630  28.1%     -    2s
     0     0 59767.3630    0  103 83159.9832 59767.3630  28.1%     -    2s
     0     0 59767.3630    0  106 83159.9832 59767.3630  28.1%     -    2s
     0     0 59767.3630    0  104 83159.9832 59767.3630  28.1%     -    2s
     0     0 59767.3630    0  104 83159.9832 59767.3630  28.1%     -    2s
     0     0 59767.3630    0   97 83159.9832 59767.3630  28.1%     -    2s
     0     0 59767.3630    0   97 83159.9832 59767.3630  28.1%     -    2s
     0     0 59767.3630    0   99 83159.9832 59767.3630  28.1%     -    2s
     0     0 59767.3630    0   99 83159.9832 59767.3630  28.1%     -    2s
     0     0 59767.3630    0   97 83159.9832 59767.3630  28.1%     -    2s
     0     0 59767.3630    0  100 83159.9832 59767.3630  28.1%     -    2s
     0     0 59767.3630    0  100 83159.9832 59767.3630  28.1%     -    2s
     0     0 59767.3630    0  100 83159.9832 59767.3630  28.1%     -    2s
     0     0 59767.3630    0  100 83159.9832 59767.3630  28.1%     -    2s
     0     0 59767.3630    0  101 83159.9832 59767.3630  28.1%     -    2s
     0     0 59767.3630    0  101 83159.9832 59767.3630  28.1%     -    2s
     0     0 59767.3630    0  101 83159.9832 59767.3630  28.1%     -    2s
     0     0 59767.3630    0   99 83159.9832 59767.3630  28.1%     -    2s
     0     2 59767.3630    0   99 83159.9832 59767.3630  28.1%     -    2s

Cutting planes:
  Gomory: 14
  Implied bound: 18
  MIR: 48
  Flow cover: 3
  RLT: 36
  Relax-and-lift: 4

Explored 830 nodes (7442 simplex iterations) in 3.41 seconds (0.45 work units)
Thread count was 32 (of 128 available processors)

Solution count 10: 83160 83760 89400 ... 425900

Optimal solution found (tolerance 1.00e-10)
Warning: max constraint violation (7.9615e-04) exceeds tolerance
Warning: max general constraint violation (7.9615e-04) exceeds tolerance
Best objective 8.315998324987e+04, best bound 8.315998324987e+04, gap 0.0000%
